decision_x1=[0,2];
decision_x2=[0,2];
decision_x3=[0,2];
decision_x4=[0,2];
decision_x5=[0,2];
random_y1=[0,2];
constraint_x2_x1=[
0,0,1.4|
0,1,7.3|
0,2,6.4|
1,0,4.9|
1,1,5.8|
1,2,9.8|
2,0,9.7|
2,1,0.2|
2,2,3.3|
];
constraint_x3_x1=[
0,0,6.3|
0,1,8.3|
0,2,7.4|
1,0,3.4|
1,1,9.5|
1,2,8.3|
2,0,9.3|
2,1,0.86|
2,2,2.7|
];
constraint_x3_x2=[
0,0,8.4|
0,1,1.1|
0,2,2.8|
1,0,9.3|
1,1,2.6|
1,2,4.9|
2,0,8.9|
2,1,0.66|
2,2,7.5|
];
constraint_x4_x3=[
0,0,5.3|
0,1,0.64|
0,2,9.8|
1,0,5.4|
1,1,5|
1,2,9.6|
2,0,2.9|
2,1,6.3|
2,2,4.3|
];
constraint_x5_x3=[
0,0,4.4|
0,1,3.8|
0,2,3.7|
1,0,4.9|
1,1,0.1|
1,2,5.2|
2,0,9.4|
2,1,8.6|
2,2,0.39|
];
constraint_x1_y1=[
0,0,9.9|
0,1,1.1|
0,2,9.1|
1,0,2.2|
1,1,0.83|
1,2,2.2|
2,0,0.32|
2,1,0.85|
2,2,1.9|
];
initial_distribution_y1=[0.64,0.18,0.18];
transition_y1=[
0.26,0.46,0.28|
0.34,0.4,0.26|
0.36,0.27,0.37|
];
